          28
          60
           1          24           9
           2           8           9
           3          11           9
           4          17           9
           5          24           4
           6           8           4
           7           6           1
           8           5           1
           9          17           4
          10           6           3
          11           5           3
          12           5          12
          13          13          12
          14          14          14
          15          14           2
          16           2           2
          17           3           8
          18           9           8
          19          14          12
          20           2          12
          21           3           6
          22           9           6
          23           5           2
          24          13           2
          25          18           3
          26          14           3
          27          16           3
          28          12           3
